\ENCODING=ISO-8859-1
\Problem name: IloCplex

Minimize
 obj1: 3 x_a_0 + x_a_1 + 2 x_a_2 + 2 x_a_3 + 2 x_a_4 + 2 x_a_5 + x_a_6
       + 3 x_a_7 + x_a_8 + x_a_9 + 2 x_a_10 + x_a_11 + x_a_12 + x_a_13 + x_a_14
       + x_a_15 + 2 x_a_16 + 3 x_a_17 + x_a_18 + 3 x_a_19 + 3 x_a_20 + x_a_21
       + 2 x_a_22 + x_a_23 + 3 x_a_24 + 3 x_a_25 + x_a_26 + 2 x_a_27 + 2 x_a_28
       + x_a_29 + 2 x_a_30 + 2 x_a_31 + 3 x_a_32 + x_a_33 + 2 x_a_34 + 2 x_a_35
       + 3 x_a_36 + 3 x_a_37 + x_a_38 + 2 x_a_39 + 2 x_a_40 + 2 x_a_41 + x_a_42
       + 2 x_a_43 + x_a_44 + x_a_45 + 2 x_a_46 + x_a_47 + 3 x_a_48 + 3 x_a_49
       + 2 x_a_50 + x_a_51 + 3 x_a_52 + x_a_53 + 3 x_a_54 + x_a_55 + 2 x_a_56
       + 3 x_a_57 + 3 x_a_58 + 3 x_a_59 + 3 x_a_60 + 2 x_a_61 + 3 x_a_62
       + 3 x_a_63 + x_a_64 + 1000000000 x_a_65 + 1000000000 x_a_66
       + 1000000000 x_a_67 + 1000000000 x_a_68 + 1000000000 x_a_69
       + 1000000000 x_a_70 + 1000000000 x_a_71 + 1000000000 x_a_72
       + 10000 x_a_73
Subject To
 c1:  y_a_65 + y_a_66 + y_a_67 + y_a_68 <= 65.2
 c2:  - y_a_67 + y_a_0 + y_a_1 + y_a_2 + y_a_3 + y_a_4 + y_a_5 + y_a_6 + y_a_7
       = 0
 c3:  - y_a_66 - y_a_0 + y_a_8 + y_a_9 + y_a_10 + y_a_11 + y_a_12 + y_a_13
      + y_a_14 + y_a_15  = 0
 c4:  - y_a_1 - y_a_8 + y_a_16 + y_a_17 + y_a_18 + y_a_19 + y_a_20  = 0
 c5:  - y_a_2 - y_a_9 + y_a_21 + y_a_22 + y_a_23 + y_a_24 + y_a_25 + y_a_26
      + y_a_27  = 0
 c6:  - y_a_3 - y_a_10 + y_a_28 + y_a_29 + y_a_30 + y_a_31 + y_a_32 + y_a_33
      + y_a_34 + y_a_35  = 0
 c7:  - y_a_11 - y_a_28 + y_a_36 + y_a_37 + y_a_38 + y_a_39 + y_a_69 + y_a_70
       = 0
 c8:  - y_a_12 - y_a_21 - y_a_29 + y_a_40 + y_a_41 + y_a_42  = 0
 c9:  - y_a_4 - y_a_30 - y_a_40 + y_a_43 + y_a_44 + y_a_45 + y_a_46  = 0
 c10: - y_a_5 - y_a_13 - y_a_16 - y_a_22 - y_a_41 - y_a_43 + y_a_47 + y_a_48
      + y_a_49 + y_a_50 + y_a_51  = 0
 c11: - y_a_14 - y_a_31 - y_a_36 - y_a_44 + y_a_52 + y_a_53  = 0
 c12: - y_a_23 - y_a_32 + y_a_54 + y_a_55  = 0
 c13: - y_a_15 - y_a_17 - y_a_24 - y_a_45 - y_a_47 + y_a_56 + y_a_57  = 0
 c14: - y_a_25 - y_a_33 - y_a_46 - y_a_48 - y_a_52 + y_a_58 + y_a_59  = 0
 c15: - y_a_18 - y_a_42 + y_a_60  = 0
 c16: - y_a_19 - y_a_34 - y_a_49 - y_a_58 - y_a_60 + y_a_61 + y_a_62  = 0
 c17: - y_a_6 - y_a_20 - y_a_26 - y_a_37 - y_a_50 - y_a_54 - y_a_56 + y_a_63
      + y_a_71  = 0
 c18: - y_a_65 - y_a_27 - y_a_35 - y_a_38 - y_a_51 - y_a_55 - y_a_59 - y_a_61
      + y_a_64  = 0
 c19: - y_a_7 - y_a_39 - y_a_53 - y_a_57 - y_a_62 - y_a_63 - y_a_64 + y_a_72
       = 0
 c20: y_a_65 + y_a_66 + y_a_67 - y_a_73  = 0
 c21: - y_a_69 - y_a_70 - y_a_71 - y_a_72 + y_a_73  = 0
 c22: y_a_0 + 4 x_a_0 <= 4
 c23: y_a_1 + 28 x_a_1 <= 28
 c24: y_a_2 + 9 x_a_2 <= 9
 c25: y_a_3 + 36 x_a_3 <= 36
 c26: y_a_4 + 35 x_a_4 <= 35
 c27: y_a_5 + 19 x_a_5 <= 19
 c28: y_a_6 + 9 x_a_6 <= 9
 c29: y_a_7 + 22 x_a_7 <= 22
 c30: y_a_8 + 24 x_a_8 <= 24
 c31: y_a_9 + 37 x_a_9 <= 37
 c32: y_a_10 + 2 x_a_10 <= 2
 c33: y_a_11 + 40 x_a_11 <= 40
 c34: y_a_12 + 29 x_a_12 <= 29
 c35: y_a_13 + 24 x_a_13 <= 24
 c36: y_a_14 + 39 x_a_14 <= 39
 c37: y_a_15 + 35 x_a_15 <= 35
 c38: y_a_16 + 26 x_a_16 <= 26
 c39: y_a_17 + 35 x_a_17 <= 35
 c40: y_a_18 + 20 x_a_18 <= 20
 c41: y_a_19 + 24 x_a_19 <= 24
 c42: y_a_20 + 39 x_a_20 <= 39
 c43: y_a_21 + 40 x_a_21 <= 40
 c44: y_a_22 + 15 x_a_22 <= 15
 c45: y_a_23 + 34 x_a_23 <= 34
 c46: y_a_24 + 29 x_a_24 <= 29
 c47: y_a_25 + 21 x_a_25 <= 21
 c48: y_a_26 + 16 x_a_26 <= 16
 c49: y_a_27 + 19 x_a_27 <= 19
 c50: y_a_28 + 33 x_a_28 <= 33
 c51: y_a_29 + 8 x_a_29 <= 8
 c52: y_a_30 + 3 x_a_30 <= 3
 c53: y_a_31 + 8 x_a_31 <= 8
 c54: y_a_32 + 16 x_a_32 <= 16
 c55: y_a_33 + 24 x_a_33 <= 24
 c56: y_a_34 + 37 x_a_34 <= 37
 c57: y_a_35 + 30 x_a_35 <= 30
 c58: y_a_36 + 42 x_a_36 <= 42
 c59: y_a_37 + 20 x_a_37 <= 20
 c60: y_a_38 + 37 x_a_38 <= 37
 c61: y_a_39 + 29 x_a_39 <= 29
 c62: y_a_40 + 33 x_a_40 <= 33
 c63: y_a_41 + 6 x_a_41 <= 6
 c64: y_a_42 + 35 x_a_42 <= 35
 c65: y_a_43 + 2 x_a_43 <= 2
 c66: y_a_44 + 26 x_a_44 <= 26
 c67: y_a_45 + 7 x_a_45 <= 7
 c68: y_a_46 + 10 x_a_46 <= 10
 c69: y_a_47 + 4 x_a_47 <= 4
 c70: y_a_48 + 35 x_a_48 <= 35
 c71: y_a_49 + 13 x_a_49 <= 13
 c72: y_a_50 + 27 x_a_50 <= 27
 c73: y_a_51 + 44 x_a_51 <= 44
 c74: y_a_52 + 4 x_a_52 <= 4
 c75: y_a_53 + 37 x_a_53 <= 37
 c76: y_a_54 + 15 x_a_54 <= 15
 c77: y_a_55 + 10 x_a_55 <= 10
 c78: y_a_56 + 34 x_a_56 <= 34
 c79: y_a_57 + 2 x_a_57 <= 2
 c80: y_a_58 + 37 x_a_58 <= 37
 c81: y_a_59 + 4 x_a_59 <= 4
 c82: y_a_60 + 49 x_a_60 <= 49
 c83: y_a_61 + 19 x_a_61 <= 19
 c84: y_a_62 + 7 x_a_62 <= 7
 c85: y_a_63 + 46 x_a_63 <= 46
 c86: y_a_64 + 45 x_a_64 <= 45
 c87: y_a_65 + 50000000 x_a_65 <= 50000000
 c88: y_a_66 + 50000000 x_a_66 <= 50000000
 c89: y_a_67 + 50000000 x_a_67 <= 50000000
 c90: y_a_68 + 50000000 x_a_68 <= 50000000
 c91: y_a_69 + 50000000 x_a_69 <= 50000000
 c92: y_a_70 + 50000000 x_a_70 <= 50000000
 c93: y_a_71 + 50000000 x_a_71 <= 50000000
 c94: y_a_72 + 50000000 x_a_72 <= 50000000
 c95: y_a_73 + 10000 x_a_73 <= 10000
Bounds
 0 <= x_a_0 <= 1
 0 <= x_a_1 <= 1
 0 <= x_a_2 <= 1
 0 <= x_a_3 <= 1
 0 <= x_a_4 <= 1
 0 <= x_a_5 <= 1
 0 <= x_a_6 <= 1
 0 <= x_a_7 <= 1
 0 <= x_a_8 <= 1
 0 <= x_a_9 <= 1
 0 <= x_a_10 <= 1
 0 <= x_a_11 <= 1
 0 <= x_a_12 <= 1
 0 <= x_a_13 <= 1
 0 <= x_a_14 <= 1
 0 <= x_a_15 <= 1
 0 <= x_a_16 <= 1
 0 <= x_a_17 <= 1
 0 <= x_a_18 <= 1
 0 <= x_a_19 <= 1
 0 <= x_a_20 <= 1
 0 <= x_a_21 <= 1
 0 <= x_a_22 <= 1
 0 <= x_a_23 <= 1
 0 <= x_a_24 <= 1
 0 <= x_a_25 <= 1
 0 <= x_a_26 <= 1
 0 <= x_a_27 <= 1
 0 <= x_a_28 <= 1
 0 <= x_a_29 <= 1
 0 <= x_a_30 <= 1
 0 <= x_a_31 <= 1
 0 <= x_a_32 <= 1
 0 <= x_a_33 <= 1
 0 <= x_a_34 <= 1
 0 <= x_a_35 <= 1
 0 <= x_a_36 <= 1
 0 <= x_a_37 <= 1
 0 <= x_a_38 <= 1
 0 <= x_a_39 <= 1
 0 <= x_a_40 <= 1
 0 <= x_a_41 <= 1
 0 <= x_a_42 <= 1
 0 <= x_a_43 <= 1
 0 <= x_a_44 <= 1
 0 <= x_a_45 <= 1
 0 <= x_a_46 <= 1
 0 <= x_a_47 <= 1
 0 <= x_a_48 <= 1
 0 <= x_a_49 <= 1
 0 <= x_a_50 <= 1
 0 <= x_a_51 <= 1
 0 <= x_a_52 <= 1
 0 <= x_a_53 <= 1
 0 <= x_a_54 <= 1
 0 <= x_a_55 <= 1
 0 <= x_a_56 <= 1
 0 <= x_a_57 <= 1
 0 <= x_a_58 <= 1
 0 <= x_a_59 <= 1
 0 <= x_a_60 <= 1
 0 <= x_a_61 <= 1
 0 <= x_a_62 <= 1
 0 <= x_a_63 <= 1
 0 <= x_a_64 <= 1
 0 <= x_a_65 <= 1
 0 <= x_a_66 <= 1
 0 <= x_a_67 <= 1
 0 <= x_a_68 <= 1
 0 <= x_a_69 <= 1
 0 <= x_a_70 <= 1
 0 <= x_a_71 <= 1
 0 <= x_a_72 <= 1
 0 <= x_a_73 <= 1
Binaries
 x_a_0  x_a_1  x_a_2  x_a_3  x_a_4  x_a_5  x_a_6  x_a_7  x_a_8  x_a_9  x_a_10 
 x_a_11  x_a_12  x_a_13  x_a_14  x_a_15  x_a_16  x_a_17  x_a_18  x_a_19 
 x_a_20  x_a_21  x_a_22  x_a_23  x_a_24  x_a_25  x_a_26  x_a_27  x_a_28 
 x_a_29  x_a_30  x_a_31  x_a_32  x_a_33  x_a_34  x_a_35  x_a_36  x_a_37 
 x_a_38  x_a_39  x_a_40  x_a_41  x_a_42  x_a_43  x_a_44  x_a_45  x_a_46 
 x_a_47  x_a_48  x_a_49  x_a_50  x_a_51  x_a_52  x_a_53  x_a_54  x_a_55 
 x_a_56  x_a_57  x_a_58  x_a_59  x_a_60  x_a_61  x_a_62  x_a_63  x_a_64 
 x_a_65  x_a_66  x_a_67  x_a_68  x_a_69  x_a_70  x_a_71  x_a_72  x_a_73 
End
